nj = 5;
nm = 4;
pidle =  [2 1 1 1];
Ops =  {<1 1 1 10 0 5 3> <1 2 4 18 1 1 4>
     <2 1 2 10 0 5 3>
     <2 2 4 18 1 2 5>
     <3 1 1 10 0 5 4>
     <3 2 3 20 1 1 3>
     <4 1 2 10 1 5 5>
     <4 2 3 15 0 2 3>
     <4 3 4 12 1 3 4>
     <5 1 1 10 0 5 4>
     <5 2 2 15 0 1 3>
     <5 3 4 12 1 2 3>
     <6 1 1 10 0 5 4>
     <6 2 2 15 0 1 3>
     <6 3 3 12 1 2 4>};
